0 3889
2401 3788
4802 3698
7203 3610
9604 3529
12005 3475
14406 3433
16807 3393
19208 3357
21609 3338
24010 3322
26411 3297
28812 3282
31213 3265
33614 3241
36015 3231
38416 3215
40817 3204
43218 3182
45619 3171
48020 3159
57624 3156
60025 3148
62426 3145
64827 3128
67228 3118
69629 3117
146461 3116
148862 3109
153664 3094
163268 3092
165669 3088
168070 3086
170471 3084
172872 3078
175273 3072
177674 3069
182476 3068
184877 3066
187278 3063
223293 3061
225694 3058
453789 3057
456190 3055
